10 20
0 712 471 245 202 520 503 210 560 152
712 0 677 905 510 196 221 610 254 574
471 677 0 450 427 570 580 603 423 375
245 905 450 0 413 724 714 453 707 336
202 510 427 413 0 318 304 188 372 82
520 196 570 724 318 0 31 414 214 389
503 221 580 714 304 31 0 388 240 378
210 610 603 453 188 414 388 0 533 228
560 254 423 707 372 214 240 533 0 408
152 574 375 336 82 389 378 228 408 0
4 9 8
4 6 30
5 1 19
8 6 24
2 8 42
7 1 61
6 5 3
3 0 24
8 2 42
0 7 21
2 4 42
0 4 20
2 1 67
6 4 30
6 7 38
3 2 45
8 7 53
9 6 37
0 6 50
6 3 71
